NAME : morphed20-2-12
COMMENT : Generated using the function morphInstances from the R-package netgen (Bossek,2015) - Number of clusters: 2 Alpha: 0.5
TYPE : TSP
DIMENSION : 20
EDGE_WEIGHT_TYPE : EUC_2D
NODE_COORD_SECTION
1 25.6592524767 20.0457800356
2 83.2092827562 77.7191203445
3 90.3349616694 39.036694842
4 48.4269437407 73.1507542439
5 29.759973427 21.6935749167
6 22.7315284801 27.7330018996
7 31.7004041286 43.3665760718
8 62.3101241717 25.3241257299
9 30.0505986319 37.685642202
10 28.7892775691 50.1328903305
11 45.425751651 27.0550141291
12 82.8938934625 88.0112610353
13 60.1895438075 85.8040320979
14 57.7986027716 78.4154038901
15 52.5808281964 66.8477431245
16 67.1117917385 88.0044903099
17 59.0487606344 71.2381489199
18 67.983563203 80.0162194245
19 63.0012728074 38.1041721276
20 30.7393375805 35.3761748873
EOF
